p tdp 80 79
41 37
60 69
47 15
67 79
42 67
60 45
80 78
48 66
30 49
55 68
21 35
1 61
79 80
62 23
6 48
12 20
16 61
54 13
19 24
46 5
59 38
27 36
10 32
2 54
15 38
28 29
28 50
64 39
12 73
22 59
33 52
71 57
74 69
79 14
34 53
40 77
25 2
61 70
7 30
34 62
36 37
11 66
30 5
13 3
39 38
8 9
10 63
32 26
23 58
43 77
39 52
68 28
29 56
77 72
4 72
6 46
21 16
17 27
13 29
8 44
17 73
76 79
33 79
65 31
6 51
69 23
57 53
13 16
8 38
21 18
28 75
40 75
49 26
31 54
51 34
24 8
68 45
33 66
79 41
